$molecule
1 2
 C         -0.10747        0.00002       -0.00003
 H         -0.61228       -0.95838        0.00003
 H         -0.61179        0.95862        0.00010
 H          0.93442       -0.00022        0.55591
 H          0.93445       -0.00011       -0.55583
$end

$rem
METHOD            EOM-CCSD
IP_STATES         [3]
BASIS             cc-pvDZ
CC_STATE_TO_OPT   [1,3]
CALC_NAC          2
SYM_IGNORE        TRUE
$end

